
Gurobi 7.0.2 (linux64, Python) logging started Tue Oct 10 18:58:30 2017


Gurobi 7.0.2 (linux64, Python) logging started Tue Oct 10 18:58:30 2017


Gurobi 7.0.2 (linux64, Python) logging started Wed Oct 11 10:11:28 2017

